200
1000
300
297
294
293
293
293
292
292
290
289
289
288
287
287
286
286
285
284
284
283
280
280
280
279
278
278
277
277
276
275
275
274
274
273
272
268
268
267
265
265
265
264
264
262
262
261
261
261
261
259
256
254
254
251
250
249
249
248
247
245
245
243
240
239
239
238
237
235
235
231
230
229
229
228
221
220
217
215
215
214
213
212
211
210
210
210
209
209
209
208
208
206
206
205
205
203
202
202
201
201
200
200
199
198
196
193
192
192
192
190
188
188
186
186
186
185
183
181
181
180
179
179
176
175
174
174
173
173
171
170
168
167
167
166
164
163
163
161
161
160
155
154
152
150
150
148
147
147
146
146
145
145
145
145
144
144
143
143
142
139
139
139
139
138
137
135
134
132
127
126
126
126
126
125
125
125
125
124
124
124
123
123
122
122
122
120
119
118
118
117
114
114
113
112
111
111
110
107
106
104
